158
0 38 68 132 75 51 111 67 28 157 
151 63 95 87 118 120 25 19 78 152 
145 109 29 73 59 52 104 53 26 140 
79 20 138 66 27 131 46 139 117 93 
114 6 9 127 56 21 39 77 156 70 
102 31 42 97 150 57 36 45 72 133 
149 14 11 143 34 13 148 61 94 106 
100 55 49 40 112 2 147 86 16 91 
153 146 48 15 124 155 98 110 96 85 
3 99 123 58 22 116 69 62 44 1 
37 32 154 115 92 81 47 60 103 23 
71 142 8 84 108 64 10 7 54 122 
5 125 135 17 76 89 35 113 65 121 
107 130 30 83 82 74 129 134 144 4 
119 80 50 141 126 128 18 43 105 90 
136 137 24 41 12 88 33 101 
